\ENCODING=ISO-8859-1
\Problem name: bpSARP

Maximize
 obj1: 6.603 x(0,157,0) + 6.603 x(0,158,1) + 8.628 x(4,157,0)
       + 8.628 x(4,158,1) + 8.957 x(16,157,0) + 8.957 x(16,158,1)
       + 4.88 x(31,0,0) + 4.88 x(31,0,1) + 3.914 x(31,4,0) + 3.914 x(31,4,1)
       + 2.856 x(31,16,0) + 2.856 x(31,16,1) + 1.43 x(31,62,0)
       + 1.43 x(31,62,1) + 3.914 x(31,66,0) + 3.914 x(31,66,1)
       - 0.272 x(31,90,0) - 0.272 x(31,90,1) + 2.856 x(31,93,0)
       + 2.856 x(31,93,1) + 2.856 x(31,96,0) + 2.856 x(31,96,1)
       + 3.914 x(31,97,0) + 3.914 x(31,97,1) + 3.592 x(31,124,0)
       + 3.592 x(31,124,1) + 3.914 x(31,128,0) + 3.914 x(31,128,1)
       + 3.592 x(31,139,0) + 3.592 x(31,139,1) + 7.686 x(31,157,0)
       + 7.686 x(31,158,1) + 5.939 x(34,0,0) + 5.939 x(34,0,1)
       + 7.687 x(34,16,0) + 7.687 x(34,16,1) + 8.607 x(34,62,0)
       + 8.607 x(34,62,1) + 7.319 x(34,90,0) + 7.319 x(34,90,1)
       + 10.447 x(34,93,0) + 10.447 x(34,93,1) + 9.711 x(34,124,0)
       + 9.711 x(34,124,1) + 9.711 x(34,139,0) + 9.711 x(34,139,1)
       + 11.551 x(34,157,0) + 11.551 x(34,158,1) + 5.21 x(46,0,0)
       + 5.21 x(46,0,1) + 5.716 x(46,4,0) + 5.716 x(46,4,1) + 6.084 x(46,62,0)
       + 6.084 x(46,62,1) + 5.716 x(46,66,0) + 5.716 x(46,66,1)
       + 3.784 x(46,90,0) + 3.784 x(46,90,1) + 5.072 x(46,93,0)
       + 5.072 x(46,93,1) + 5.072 x(46,96,0) + 5.072 x(46,96,1)
       + 5.716 x(46,97,0) + 5.716 x(46,97,1) + 7.51 x(46,124,0)
       + 7.51 x(46,124,1) + 5.716 x(46,128,0) + 5.716 x(46,128,1)
       + 9.58 x(46,157,0) + 9.58 x(46,158,1) - 2.412 x(62,0,0)
       - 2.412 x(62,0,1) + 0.853999999999999 x(62,4,0)
       + 0.853999999999999 x(62,4,1) + 1.82 x(62,16,0) + 1.82 x(62,16,1)
       + 2.05 x(62,124,0) + 2.05 x(62,124,1) + 0.853999999999999 x(62,128,0)
       + 0.853999999999999 x(62,128,1) + 2.05 x(62,139,0) + 2.05 x(62,139,1)
       + 5.178 x(62,157,0) + 5.178 x(62,158,1) + 2.281 x(66,0,0)
       + 2.281 x(66,0,1) + 6.513 x(66,16,0) + 6.513 x(66,16,1)
       + 6.743 x(66,124,0) + 6.743 x(66,124,1) + 6.743 x(66,139,0)
       + 6.743 x(66,139,1) + 9.871 x(66,157,0) + 9.871 x(66,158,1)
       + 1.348 x(90,0,0) + 1.348 x(90,0,1) + 4.614 x(90,4,0) + 4.614 x(90,4,1)
       + 5.58 x(90,16,0) + 5.58 x(90,16,1) + 5.81 x(90,124,0)
       + 5.81 x(90,124,1) + 4.614 x(90,128,0) + 4.614 x(90,128,1)
       + 5.81 x(90,139,0) + 5.81 x(90,139,1) + 8.938 x(90,157,0)
       + 8.938 x(90,158,1) - 3.08 x(93,0,0) - 3.08 x(93,0,1) + 2.532 x(93,4,0)
       + 2.532 x(93,4,1) - 0.504 x(93,16,0) - 0.504 x(93,16,1)
       + 2.44 x(93,62,0) + 2.44 x(93,62,1) + 2.532 x(93,66,0)
       + 2.532 x(93,66,1) + 3.038 x(93,90,0) + 3.038 x(93,90,1)
       + 1.428 x(93,124,0) + 1.428 x(93,124,1) + 2.532 x(93,128,0)
       + 2.532 x(93,128,1) + 1.428 x(93,139,0) + 1.428 x(93,139,1)
       + 5.292 x(93,157,0) + 5.292 x(93,158,1) + 4.557 x(96,0,0)
       + 4.557 x(96,0,1) + 6.305 x(96,16,0) + 6.305 x(96,16,1)
       + 7.225 x(96,62,0) + 7.225 x(96,62,1) + 8.329 x(96,124,0)
       + 8.329 x(96,124,1) + 8.329 x(96,139,0) + 8.329 x(96,139,1)
       + 10.169 x(96,157,0) + 10.169 x(96,158,1) + 3.453 x(97,0,0)
       + 3.453 x(97,0,1) + 6.029 x(97,16,0) + 6.029 x(97,16,1)
       + 8.973 x(97,62,0) + 8.973 x(97,62,1) + 9.571 x(97,90,0)
       + 9.571 x(97,90,1) + 7.961 x(97,124,0) + 7.961 x(97,124,1)
       + 7.961 x(97,139,0) + 7.961 x(97,139,1) + 11.825 x(97,157,0)
       + 11.825 x(97,158,1) + 5.349 x(124,157,0) + 5.349 x(124,158,1)
       + 11.146 x(128,157,0) + 11.146 x(128,158,1) + 10.693 x(139,157,0)
       + 10.693 x(139,158,1) - 4.692 x(155,0,0) - 5.796 x(155,4,0)
       - 1.932 x(155,16,0) - 7.038 x(155,31,0) - 7.038 x(155,34,0)
       - 7.038 x(155,46,0) - 5.152 x(155,62,0) - 5.796 x(155,66,0)
       - 7.406 x(155,90,0) - 6.44 x(155,93,0) - 6.44 x(155,96,0)
       - 5.796 x(155,97,0) - 4.002 x(155,124,0) - 5.796 x(155,128,0)
       - 4.002 x(155,139,0) - 6.348 x(156,0,1) - 4.094 x(156,4,1)
       - 1.978 x(156,16,1) - 8.648 x(156,31,1) - 8.648 x(156,34,1)
       - 8.648 x(156,46,1) - 2.162 x(156,62,1) - 4.094 x(156,66,1)
       - 4.324 x(156,90,1) - 4.232 x(156,93,1) - 4.232 x(156,96,1)
       - 4.094 x(156,97,1) - 2.438 x(156,124,1) - 4.094 x(156,128,1)
       - 2.438 x(156,139,1) + 0 u(0) + 0 u(1) + 0 uf(0) + 0 uf(1)
Subject To
 Constraint1_0:     x(0,157,0) + x(0,158,1) + x(4,157,0) + x(4,158,1)
                    + x(16,157,0) + x(16,158,1)  = 1
 Constraint1_1:     x(31,0,0) + x(31,0,1) + x(31,4,0) + x(31,4,1) + x(31,16,0)
                    + x(31,16,1) + x(31,62,0) + x(31,62,1) + x(31,66,0)
                    + x(31,66,1) + x(31,90,0) + x(31,90,1) + x(31,93,0)
                    + x(31,93,1) + x(31,96,0) + x(31,96,1) + x(31,97,0)
                    + x(31,97,1) + x(31,124,0) + x(31,124,1) + x(31,128,0)
                    + x(31,128,1) + x(31,139,0) + x(31,139,1) + x(31,157,0)
                    + x(31,158,1) + x(34,0,0) + x(34,0,1) + x(34,16,0)
                    + x(34,16,1) + x(34,62,0) + x(34,62,1) + x(34,90,0)
                    + x(34,90,1) + x(34,93,0) + x(34,93,1) + x(34,124,0)
                    + x(34,124,1) + x(34,139,0) + x(34,139,1) + x(34,157,0)
                    + x(34,158,1) + x(46,0,0) + x(46,0,1) + x(46,4,0)
                    + x(46,4,1) + x(46,62,0) + x(46,62,1) + x(46,66,0)
                    + x(46,66,1) + x(46,90,0) + x(46,90,1) + x(46,93,0)
                    + x(46,93,1) + x(46,96,0) + x(46,96,1) + x(46,97,0)
                    + x(46,97,1) + x(46,124,0) + x(46,124,1) + x(46,128,0)
                    + x(46,128,1) + x(46,157,0) + x(46,158,1)  = 1
 Constraint1_2:     x(62,0,0) + x(62,0,1) + x(62,4,0) + x(62,4,1) + x(62,16,0)
                    + x(62,16,1) + x(62,124,0) + x(62,124,1) + x(62,128,0)
                    + x(62,128,1) + x(62,139,0) + x(62,139,1) + x(62,157,0)
                    + x(62,158,1) + x(66,0,0) + x(66,0,1) + x(66,16,0)
                    + x(66,16,1) + x(66,124,0) + x(66,124,1) + x(66,139,0)
                    + x(66,139,1) + x(66,157,0) + x(66,158,1) + x(90,0,0)
                    + x(90,0,1) + x(90,4,0) + x(90,4,1) + x(90,16,0)
                    + x(90,16,1) + x(90,124,0) + x(90,124,1) + x(90,128,0)
                    + x(90,128,1) + x(90,139,0) + x(90,139,1) + x(90,157,0)
                    + x(90,158,1)  = 1
 Constraint1_3:     x(93,0,0) + x(93,0,1) + x(93,4,0) + x(93,4,1) + x(93,16,0)
                    + x(93,16,1) + x(93,62,0) + x(93,62,1) + x(93,66,0)
                    + x(93,66,1) + x(93,90,0) + x(93,90,1) + x(93,124,0)
                    + x(93,124,1) + x(93,128,0) + x(93,128,1) + x(93,139,0)
                    + x(93,139,1) + x(93,157,0) + x(93,158,1) + x(96,0,0)
                    + x(96,0,1) + x(96,16,0) + x(96,16,1) + x(96,62,0)
                    + x(96,62,1) + x(96,124,0) + x(96,124,1) + x(96,139,0)
                    + x(96,139,1) + x(96,157,0) + x(96,158,1) + x(97,0,0)
                    + x(97,0,1) + x(97,16,0) + x(97,16,1) + x(97,62,0)
                    + x(97,62,1) + x(97,90,0) + x(97,90,1) + x(97,124,0)
                    + x(97,124,1) + x(97,139,0) + x(97,139,1) + x(97,157,0)
                    + x(97,158,1)  = 1
 Constraint1_4:     x(124,157,0) + x(124,158,1) + x(128,157,0) + x(128,158,1)
                    + x(139,157,0) + x(139,158,1)  = 1
 Constraint2_0:     x(31,0,0) + x(31,0,1) + x(31,4,0) + x(31,4,1) + x(31,16,0)
                    + x(31,16,1) + x(34,0,0) + x(34,0,1) + x(34,16,0)
                    + x(34,16,1) + x(46,0,0) + x(46,0,1) + x(46,4,0)
                    + x(46,4,1) + x(62,0,0) + x(62,0,1) + x(62,4,0) + x(62,4,1)
                    + x(62,16,0) + x(62,16,1) + x(66,0,0) + x(66,0,1)
                    + x(66,16,0) + x(66,16,1) + x(90,0,0) + x(90,0,1)
                    + x(90,4,0) + x(90,4,1) + x(90,16,0) + x(90,16,1)
                    + x(93,0,0) + x(93,0,1) + x(93,4,0) + x(93,4,1)
                    + x(93,16,0) + x(93,16,1) + x(96,0,0) + x(96,0,1)
                    + x(96,16,0) + x(96,16,1) + x(97,0,0) + x(97,0,1)
                    + x(97,16,0) + x(97,16,1) + x(155,0,0) + x(155,4,0)
                    + x(155,16,0) + x(156,0,1) + x(156,4,1) + x(156,16,1)  = 1
 Constraint2_1:     x(155,31,0) + x(155,34,0) + x(155,46,0) + x(156,31,1)
                    + x(156,34,1) + x(156,46,1)  = 1
 Constraint2_2:     x(31,62,0) + x(31,62,1) + x(31,66,0) + x(31,66,1)
                    + x(31,90,0) + x(31,90,1) + x(34,62,0) + x(34,62,1)
                    + x(34,90,0) + x(34,90,1) + x(46,62,0) + x(46,62,1)
                    + x(46,66,0) + x(46,66,1) + x(46,90,0) + x(46,90,1)
                    + x(93,62,0) + x(93,62,1) + x(93,66,0) + x(93,66,1)
                    + x(93,90,0) + x(93,90,1) + x(96,62,0) + x(96,62,1)
                    + x(97,62,0) + x(97,62,1) + x(97,90,0) + x(97,90,1)
                    + x(155,62,0) + x(155,66,0) + x(155,90,0) + x(156,62,1)
                    + x(156,66,1) + x(156,90,1)  = 1
 Constraint2_3:     x(31,93,0) + x(31,93,1) + x(31,96,0) + x(31,96,1)
                    + x(31,97,0) + x(31,97,1) + x(34,93,0) + x(34,93,1)
                    + x(46,93,0) + x(46,93,1) + x(46,96,0) + x(46,96,1)
                    + x(46,97,0) + x(46,97,1) + x(155,93,0) + x(155,96,0)
                    + x(155,97,0) + x(156,93,1) + x(156,96,1) + x(156,97,1)
                     = 1
 Constraint2_4:     x(31,124,0) + x(31,124,1) + x(31,128,0) + x(31,128,1)
                    + x(31,139,0) + x(31,139,1) + x(34,124,0) + x(34,124,1)
                    + x(34,139,0) + x(34,139,1) + x(46,124,0) + x(46,124,1)
                    + x(46,128,0) + x(46,128,1) + x(62,124,0) + x(62,124,1)
                    + x(62,128,0) + x(62,128,1) + x(62,139,0) + x(62,139,1)
                    + x(66,124,0) + x(66,124,1) + x(66,139,0) + x(66,139,1)
                    + x(90,124,0) + x(90,124,1) + x(90,128,0) + x(90,128,1)
                    + x(90,139,0) + x(90,139,1) + x(93,124,0) + x(93,124,1)
                    + x(93,128,0) + x(93,128,1) + x(93,139,0) + x(93,139,1)
                    + x(96,124,0) + x(96,124,1) + x(96,139,0) + x(96,139,1)
                    + x(97,124,0) + x(97,124,1) + x(97,139,0) + x(97,139,1)
                    + x(155,124,0) + x(155,128,0) + x(155,139,0) + x(156,124,1)
                    + x(156,128,1) + x(156,139,1)  = 1
 Constraint3_0:     x(155,0,0) + x(155,4,0) + x(155,16,0) + x(155,31,0)
                    + x(155,34,0) + x(155,46,0) + x(155,62,0) + x(155,66,0)
                    + x(155,90,0) + x(155,93,0) + x(155,96,0) + x(155,97,0)
                    + x(155,124,0) + x(155,128,0) + x(155,139,0) + x(155,157,0)
                     = 1
 Constraint3_1:     x(156,0,1) + x(156,4,1) + x(156,16,1) + x(156,31,1)
                    + x(156,34,1) + x(156,46,1) + x(156,62,1) + x(156,66,1)
                    + x(156,90,1) + x(156,93,1) + x(156,96,1) + x(156,97,1)
                    + x(156,124,1) + x(156,128,1) + x(156,139,1) + x(156,158,1)
                     = 1
 Constraint4_0:     x(0,157,0) + x(4,157,0) + x(16,157,0) + x(31,157,0)
                    + x(34,157,0) + x(46,157,0) + x(62,157,0) + x(66,157,0)
                    + x(90,157,0) + x(93,157,0) + x(96,157,0) + x(97,157,0)
                    + x(124,157,0) + x(128,157,0) + x(139,157,0) + x(155,157,0)
                     = 1
 Constraint4_1:     x(0,158,1) + x(4,158,1) + x(16,158,1) + x(31,158,1)
                    + x(34,158,1) + x(46,158,1) + x(62,158,1) + x(66,158,1)
                    + x(90,158,1) + x(93,158,1) + x(96,158,1) + x(97,158,1)
                    + x(124,158,1) + x(128,158,1) + x(139,158,1) + x(156,158,1)
                     = 1
 Constraint5_5:     x(4,157,0) + x(4,158,1) + x(34,0,0) + x(34,0,1)
                    + x(34,16,0) + x(34,16,1) + x(34,62,0) + x(34,62,1)
                    + x(34,90,0) + x(34,90,1) + x(34,93,0) + x(34,93,1)
                    + x(34,124,0) + x(34,124,1) + x(34,139,0) + x(34,139,1)
                    + x(34,157,0) + x(34,158,1) + x(66,0,0) + x(66,0,1)
                    + x(66,16,0) + x(66,16,1) + x(66,124,0) + x(66,124,1)
                    + x(66,139,0) + x(66,139,1) + x(66,157,0) + x(66,158,1)
                    + x(96,0,0) + x(96,0,1) + x(96,16,0) + x(96,16,1)
                    + x(96,62,0) + x(96,62,1) + x(96,124,0) + x(96,124,1)
                    + x(96,139,0) + x(96,139,1) + x(96,157,0) + x(96,158,1)
                    + x(97,0,0) + x(97,0,1) + x(97,16,0) + x(97,16,1)
                    + x(97,62,0) + x(97,62,1) + x(97,90,0) + x(97,90,1)
                    + x(97,124,0) + x(97,124,1) + x(97,139,0) + x(97,139,1)
                    + x(97,157,0) + x(97,158,1) + x(128,157,0) + x(128,158,1)
                    <= 1
 Constraint5_6:     <= 1
 Constraint5_7:     x(16,157,0) + x(16,158,1) + x(46,0,0) + x(46,0,1)
                    + x(46,4,0) + x(46,4,1) + x(46,62,0) + x(46,62,1)
                    + x(46,66,0) + x(46,66,1) + x(46,90,0) + x(46,90,1)
                    + x(46,93,0) + x(46,93,1) + x(46,96,0) + x(46,96,1)
                    + x(46,97,0) + x(46,97,1) + x(46,124,0) + x(46,124,1)
                    + x(46,128,0) + x(46,128,1) + x(46,157,0) + x(46,158,1)
                    + x(139,157,0) + x(139,158,1) <= 1
 Constraint5_8:     <= 1
 Constraint5_9:     x(90,0,0) + x(90,0,1) + x(90,4,0) + x(90,4,1) + x(90,16,0)
                    + x(90,16,1) + x(90,124,0) + x(90,124,1) + x(90,128,0)
                    + x(90,128,1) + x(90,139,0) + x(90,139,1) + x(90,157,0)
                    + x(90,158,1) <= 1
 Constraint5_10:    <= 1
 Constraint5_11:    <= 1
 Constraint5_12:    <= 1
 Constraint5_13:    <= 1
 Constraint5_14:    <= 1
 Constraint6_0_0:   x(0,157,0) - x(31,0,0) - x(34,0,0) - x(46,0,0) - x(62,0,0)
                    - x(66,0,0) - x(90,0,0) - x(93,0,0) - x(96,0,0) - x(97,0,0)
                    - x(155,0,0)  = 0
 Constraint6_0_1:   x(0,158,1) - x(31,0,1) - x(34,0,1) - x(46,0,1) - x(62,0,1)
                    - x(66,0,1) - x(90,0,1) - x(93,0,1) - x(96,0,1) - x(97,0,1)
                    - x(156,0,1)  = 0
 Constraint6_1_0:    = 0
 Constraint6_1_1:    = 0
 Constraint6_2_0:    = 0
 Constraint6_2_1:    = 0
 Constraint6_3_0:    = 0
 Constraint6_3_1:    = 0
 Constraint6_4_0:   x(4,157,0) - x(31,4,0) - x(46,4,0) - x(62,4,0) - x(90,4,0)
                    - x(93,4,0) - x(155,4,0)  = 0
 Constraint6_4_1:   x(4,158,1) - x(31,4,1) - x(46,4,1) - x(62,4,1) - x(90,4,1)
                    - x(93,4,1) - x(156,4,1)  = 0
 Constraint6_5_0:    = 0
 Constraint6_5_1:    = 0
 Constraint6_6_0:    = 0
 Constraint6_6_1:    = 0
 Constraint6_7_0:    = 0
 Constraint6_7_1:    = 0
 Constraint6_8_0:    = 0
 Constraint6_8_1:    = 0
 Constraint6_9_0:    = 0
 Constraint6_9_1:    = 0
 Constraint6_10_0:   = 0
 Constraint6_10_1:   = 0
 Constraint6_11_0:   = 0
 Constraint6_11_1:   = 0
 Constraint6_12_0:   = 0
 Constraint6_12_1:   = 0
 Constraint6_13_0:   = 0
 Constraint6_13_1:   = 0
 Constraint6_14_0:   = 0
 Constraint6_14_1:   = 0
 Constraint6_15_0:   = 0
 Constraint6_15_1:   = 0
 Constraint6_16_0:  x(16,157,0) - x(31,16,0) - x(34,16,0) - x(62,16,0)
                    - x(66,16,0) - x(90,16,0) - x(93,16,0) - x(96,16,0)
                    - x(97,16,0) - x(155,16,0)  = 0
 Constraint6_16_1:  x(16,158,1) - x(31,16,1) - x(34,16,1) - x(62,16,1)
                    - x(66,16,1) - x(90,16,1) - x(93,16,1) - x(96,16,1)
                    - x(97,16,1) - x(156,16,1)  = 0
 Constraint6_17_0:   = 0
 Constraint6_17_1:   = 0
 Constraint6_18_0:   = 0
 Constraint6_18_1:   = 0
 Constraint6_19_0:   = 0
 Constraint6_19_1:   = 0
 Constraint6_20_0:   = 0
 Constraint6_20_1:   = 0
 Constraint6_21_0:   = 0
 Constraint6_21_1:   = 0
 Constraint6_22_0:   = 0
 Constraint6_22_1:   = 0
 Constraint6_23_0:   = 0
 Constraint6_23_1:   = 0
 Constraint6_24_0:   = 0
 Constraint6_24_1:   = 0
 Constraint6_25_0:   = 0
 Constraint6_25_1:   = 0
 Constraint6_26_0:   = 0
 Constraint6_26_1:   = 0
 Constraint6_27_0:   = 0
 Constraint6_27_1:   = 0
 Constraint6_28_0:   = 0
 Constraint6_28_1:   = 0
 Constraint6_29_0:   = 0
 Constraint6_29_1:   = 0
 Constraint6_30_0:   = 0
 Constraint6_30_1:   = 0
 Constraint6_31_0:  x(31,0,0) + x(31,4,0) + x(31,16,0) + x(31,62,0)
                    + x(31,66,0) + x(31,90,0) + x(31,93,0) + x(31,96,0)
                    + x(31,97,0) + x(31,124,0) + x(31,128,0) + x(31,139,0)
                    + x(31,157,0) - x(155,31,0)  = 0
 Constraint6_31_1:  x(31,0,1) + x(31,4,1) + x(31,16,1) + x(31,62,1)
                    + x(31,66,1) + x(31,90,1) + x(31,93,1) + x(31,96,1)
                    + x(31,97,1) + x(31,124,1) + x(31,128,1) + x(31,139,1)
                    + x(31,158,1) - x(156,31,1)  = 0
 Constraint6_32_0:   = 0
 Constraint6_32_1:   = 0
 Constraint6_33_0:   = 0
 Constraint6_33_1:   = 0
 Constraint6_34_0:  x(34,0,0) + x(34,16,0) + x(34,62,0) + x(34,90,0)
                    + x(34,93,0) + x(34,124,0) + x(34,139,0) + x(34,157,0)
                    - x(155,34,0)  = 0
 Constraint6_34_1:  x(34,0,1) + x(34,16,1) + x(34,62,1) + x(34,90,1)
                    + x(34,93,1) + x(34,124,1) + x(34,139,1) + x(34,158,1)
                    - x(156,34,1)  = 0
 Constraint6_35_0:   = 0
 Constraint6_35_1:   = 0
 Constraint6_36_0:   = 0
 Constraint6_36_1:   = 0
 Constraint6_37_0:   = 0
 Constraint6_37_1:   = 0
 Constraint6_38_0:   = 0
 Constraint6_38_1:   = 0
 Constraint6_39_0:   = 0
 Constraint6_39_1:   = 0
 Constraint6_40_0:   = 0
 Constraint6_40_1:   = 0
 Constraint6_41_0:   = 0
 Constraint6_41_1:   = 0
 Constraint6_42_0:   = 0
 Constraint6_42_1:   = 0
 Constraint6_43_0:   = 0
 Constraint6_43_1:   = 0
 Constraint6_44_0:   = 0
 Constraint6_44_1:   = 0
 Constraint6_45_0:   = 0
 Constraint6_45_1:   = 0
 Constraint6_46_0:  x(46,0,0) + x(46,4,0) + x(46,62,0) + x(46,66,0)
                    + x(46,90,0) + x(46,93,0) + x(46,96,0) + x(46,97,0)
                    + x(46,124,0) + x(46,128,0) + x(46,157,0) - x(155,46,0)
                     = 0
 Constraint6_46_1:  x(46,0,1) + x(46,4,1) + x(46,62,1) + x(46,66,1)
                    + x(46,90,1) + x(46,93,1) + x(46,96,1) + x(46,97,1)
                    + x(46,124,1) + x(46,128,1) + x(46,158,1) - x(156,46,1)
                     = 0
 Constraint6_47_0:   = 0
 Constraint6_47_1:   = 0
 Constraint6_48_0:   = 0
 Constraint6_48_1:   = 0
 Constraint6_49_0:   = 0
 Constraint6_49_1:   = 0
 Constraint6_50_0:   = 0
 Constraint6_50_1:   = 0
 Constraint6_51_0:   = 0
 Constraint6_51_1:   = 0
 Constraint6_52_0:   = 0
 Constraint6_52_1:   = 0
 Constraint6_53_0:   = 0
 Constraint6_53_1:   = 0
 Constraint6_54_0:   = 0
 Constraint6_54_1:   = 0
 Constraint6_55_0:   = 0
 Constraint6_55_1:   = 0
 Constraint6_56_0:   = 0
 Constraint6_56_1:   = 0
 Constraint6_57_0:   = 0
 Constraint6_57_1:   = 0
 Constraint6_58_0:   = 0
 Constraint6_58_1:   = 0
 Constraint6_59_0:   = 0
 Constraint6_59_1:   = 0
 Constraint6_60_0:   = 0
 Constraint6_60_1:   = 0
 Constraint6_61_0:   = 0
 Constraint6_61_1:   = 0
 Constraint6_62_0:  - x(31,62,0) - x(34,62,0) - x(46,62,0) + x(62,0,0)
                    + x(62,4,0) + x(62,16,0) + x(62,124,0) + x(62,128,0)
                    + x(62,139,0) + x(62,157,0) - x(93,62,0) - x(96,62,0)
                    - x(97,62,0) - x(155,62,0)  = 0
 Constraint6_62_1:  - x(31,62,1) - x(34,62,1) - x(46,62,1) + x(62,0,1)
                    + x(62,4,1) + x(62,16,1) + x(62,124,1) + x(62,128,1)
                    + x(62,139,1) + x(62,158,1) - x(93,62,1) - x(96,62,1)
                    - x(97,62,1) - x(156,62,1)  = 0
 Constraint6_63_0:   = 0
 Constraint6_63_1:   = 0
 Constraint6_64_0:   = 0
 Constraint6_64_1:   = 0
 Constraint6_65_0:   = 0
 Constraint6_65_1:   = 0
 Constraint6_66_0:  - x(31,66,0) - x(46,66,0) + x(66,0,0) + x(66,16,0)
                    + x(66,124,0) + x(66,139,0) + x(66,157,0) - x(93,66,0)
                    - x(155,66,0)  = 0
 Constraint6_66_1:  - x(31,66,1) - x(46,66,1) + x(66,0,1) + x(66,16,1)
                    + x(66,124,1) + x(66,139,1) + x(66,158,1) - x(93,66,1)
                    - x(156,66,1)  = 0
 Constraint6_67_0:   = 0
 Constraint6_67_1:   = 0
 Constraint6_68_0:   = 0
 Constraint6_68_1:   = 0
 Constraint6_69_0:   = 0
 Constraint6_69_1:   = 0
 Constraint6_70_0:   = 0
 Constraint6_70_1:   = 0
 Constraint6_71_0:   = 0
 Constraint6_71_1:   = 0
 Constraint6_72_0:   = 0
 Constraint6_72_1:   = 0
 Constraint6_73_0:   = 0
 Constraint6_73_1:   = 0
 Constraint6_74_0:   = 0
 Constraint6_74_1:   = 0
 Constraint6_75_0:   = 0
 Constraint6_75_1:   = 0
 Constraint6_76_0:   = 0
 Constraint6_76_1:   = 0
 Constraint6_77_0:   = 0
 Constraint6_77_1:   = 0
 Constraint6_78_0:   = 0
 Constraint6_78_1:   = 0
 Constraint6_79_0:   = 0
 Constraint6_79_1:   = 0
 Constraint6_80_0:   = 0
 Constraint6_80_1:   = 0
 Constraint6_81_0:   = 0
 Constraint6_81_1:   = 0
 Constraint6_82_0:   = 0
 Constraint6_82_1:   = 0
 Constraint6_83_0:   = 0
 Constraint6_83_1:   = 0
 Constraint6_84_0:   = 0
 Constraint6_84_1:   = 0
 Constraint6_85_0:   = 0
 Constraint6_85_1:   = 0
 Constraint6_86_0:   = 0
 Constraint6_86_1:   = 0
 Constraint6_87_0:   = 0
 Constraint6_87_1:   = 0
 Constraint6_88_0:   = 0
 Constraint6_88_1:   = 0
 Constraint6_89_0:   = 0
 Constraint6_89_1:   = 0
 Constraint6_90_0:  - x(31,90,0) - x(34,90,0) - x(46,90,0) + x(90,0,0)
                    + x(90,4,0) + x(90,16,0) + x(90,124,0) + x(90,128,0)
                    + x(90,139,0) + x(90,157,0) - x(93,90,0) - x(97,90,0)
                    - x(155,90,0)  = 0
 Constraint6_90_1:  - x(31,90,1) - x(34,90,1) - x(46,90,1) + x(90,0,1)
                    + x(90,4,1) + x(90,16,1) + x(90,124,1) + x(90,128,1)
                    + x(90,139,1) + x(90,158,1) - x(93,90,1) - x(97,90,1)
                    - x(156,90,1)  = 0
 Constraint6_91_0:   = 0
 Constraint6_91_1:   = 0
 Constraint6_92_0:   = 0
 Constraint6_92_1:   = 0
 Constraint6_93_0:  - x(31,93,0) - x(34,93,0) - x(46,93,0) + x(93,0,0)
                    + x(93,4,0) + x(93,16,0) + x(93,62,0) + x(93,66,0)
                    + x(93,90,0) + x(93,124,0) + x(93,128,0) + x(93,139,0)
                    + x(93,157,0) - x(155,93,0)  = 0
 Constraint6_93_1:  - x(31,93,1) - x(34,93,1) - x(46,93,1) + x(93,0,1)
                    + x(93,4,1) + x(93,16,1) + x(93,62,1) + x(93,66,1)
                    + x(93,90,1) + x(93,124,1) + x(93,128,1) + x(93,139,1)
                    + x(93,158,1) - x(156,93,1)  = 0
 Constraint6_94_0:   = 0
 Constraint6_94_1:   = 0
 Constraint6_95_0:   = 0
 Constraint6_95_1:   = 0
 Constraint6_96_0:  - x(31,96,0) - x(46,96,0) + x(96,0,0) + x(96,16,0)
                    + x(96,62,0) + x(96,124,0) + x(96,139,0) + x(96,157,0)
                    - x(155,96,0)  = 0
 Constraint6_96_1:  - x(31,96,1) - x(46,96,1) + x(96,0,1) + x(96,16,1)
                    + x(96,62,1) + x(96,124,1) + x(96,139,1) + x(96,158,1)
                    - x(156,96,1)  = 0
 Constraint6_97_0:  - x(31,97,0) - x(46,97,0) + x(97,0,0) + x(97,16,0)
                    + x(97,62,0) + x(97,90,0) + x(97,124,0) + x(97,139,0)
                    + x(97,157,0) - x(155,97,0)  = 0
 Constraint6_97_1:  - x(31,97,1) - x(46,97,1) + x(97,0,1) + x(97,16,1)
                    + x(97,62,1) + x(97,90,1) + x(97,124,1) + x(97,139,1)
                    + x(97,158,1) - x(156,97,1)  = 0
 Constraint6_98_0:   = 0
 Constraint6_98_1:   = 0
 Constraint6_99_0:   = 0
 Constraint6_99_1:   = 0
 Constraint6_100_0:  = 0
 Constraint6_100_1:  = 0
 Constraint6_101_0:  = 0
 Constraint6_101_1:  = 0
 Constraint6_102_0:  = 0
 Constraint6_102_1:  = 0
 Constraint6_103_0:  = 0
 Constraint6_103_1:  = 0
 Constraint6_104_0:  = 0
 Constraint6_104_1:  = 0
 Constraint6_105_0:  = 0
 Constraint6_105_1:  = 0
 Constraint6_106_0:  = 0
 Constraint6_106_1:  = 0
 Constraint6_107_0:  = 0
 Constraint6_107_1:  = 0
 Constraint6_108_0:  = 0
 Constraint6_108_1:  = 0
 Constraint6_109_0:  = 0
 Constraint6_109_1:  = 0
 Constraint6_110_0:  = 0
 Constraint6_110_1:  = 0
 Constraint6_111_0:  = 0
 Constraint6_111_1:  = 0
 Constraint6_112_0:  = 0
 Constraint6_112_1:  = 0
 Constraint6_113_0:  = 0
 Constraint6_113_1:  = 0
 Constraint6_114_0:  = 0
 Constraint6_114_1:  = 0
 Constraint6_115_0:  = 0
 Constraint6_115_1:  = 0
 Constraint6_116_0:  = 0
 Constraint6_116_1:  = 0
 Constraint6_117_0:  = 0
 Constraint6_117_1:  = 0
 Constraint6_118_0:  = 0
 Constraint6_118_1:  = 0
 Constraint6_119_0:  = 0
 Constraint6_119_1:  = 0
 Constraint6_120_0:  = 0
 Constraint6_120_1:  = 0
 Constraint6_121_0:  = 0
 Constraint6_121_1:  = 0
 Constraint6_122_0:  = 0
 Constraint6_122_1:  = 0
 Constraint6_123_0:  = 0
 Constraint6_123_1:  = 0
 Constraint6_124_0: - x(31,124,0) - x(34,124,0) - x(46,124,0) - x(62,124,0)
                    - x(66,124,0) - x(90,124,0) - x(93,124,0) - x(96,124,0)
                    - x(97,124,0) + x(124,157,0) - x(155,124,0)  = 0
 Constraint6_124_1: - x(31,124,1) - x(34,124,1) - x(46,124,1) - x(62,124,1)
                    - x(66,124,1) - x(90,124,1) - x(93,124,1) - x(96,124,1)
                    - x(97,124,1) + x(124,158,1) - x(156,124,1)  = 0
 Constraint6_125_0:  = 0
 Constraint6_125_1:  = 0
 Constraint6_126_0:  = 0
 Constraint6_126_1:  = 0
 Constraint6_127_0:  = 0
 Constraint6_127_1:  = 0
 Constraint6_128_0: - x(31,128,0) - x(46,128,0) - x(62,128,0) - x(90,128,0)
                    - x(93,128,0) + x(128,157,0) - x(155,128,0)  = 0
 Constraint6_128_1: - x(31,128,1) - x(46,128,1) - x(62,128,1) - x(90,128,1)
                    - x(93,128,1) + x(128,158,1) - x(156,128,1)  = 0
 Constraint6_129_0:  = 0
 Constraint6_129_1:  = 0
 Constraint6_130_0:  = 0
 Constraint6_130_1:  = 0
 Constraint6_131_0:  = 0
 Constraint6_131_1:  = 0
 Constraint6_132_0:  = 0
 Constraint6_132_1:  = 0
 Constraint6_133_0:  = 0
 Constraint6_133_1:  = 0
 Constraint6_134_0:  = 0
 Constraint6_134_1:  = 0
 Constraint6_135_0:  = 0
 Constraint6_135_1:  = 0
 Constraint6_136_0:  = 0
 Constraint6_136_1:  = 0
 Constraint6_137_0:  = 0
 Constraint6_137_1:  = 0
 Constraint6_138_0:  = 0
 Constraint6_138_1:  = 0
 Constraint6_139_0: - x(31,139,0) - x(34,139,0) - x(62,139,0) - x(66,139,0)
                    - x(90,139,0) - x(93,139,0) - x(96,139,0) - x(97,139,0)
                    + x(139,157,0) - x(155,139,0)  = 0
 Constraint6_139_1: - x(31,139,1) - x(34,139,1) - x(62,139,1) - x(66,139,1)
                    - x(90,139,1) - x(93,139,1) - x(96,139,1) - x(97,139,1)
                    + x(139,158,1) - x(156,139,1)  = 0
 Constraint6_140_0:  = 0
 Constraint6_140_1:  = 0
 Constraint6_141_0:  = 0
 Constraint6_141_1:  = 0
 Constraint6_142_0:  = 0
 Constraint6_142_1:  = 0
 Constraint6_143_0:  = 0
 Constraint6_143_1:  = 0
 Constraint6_144_0:  = 0
 Constraint6_144_1:  = 0
 Constraint6_145_0:  = 0
 Constraint6_145_1:  = 0
 Constraint6_146_0:  = 0
 Constraint6_146_1:  = 0
 Constraint6_147_0:  = 0
 Constraint6_147_1:  = 0
 Constraint6_148_0:  = 0
 Constraint6_148_1:  = 0
 Constraint6_149_0:  = 0
 Constraint6_149_1:  = 0
 Constraint6_150_0:  = 0
 Constraint6_150_1:  = 0
 Constraint6_151_0:  = 0
 Constraint6_151_1:  = 0
 Constraint6_152_0:  = 0
 Constraint6_152_1:  = 0
 Constraint6_153_0:  = 0
 Constraint6_153_1:  = 0
 Constraint6_154_0:  = 0
 Constraint6_154_1:  = 0
Bounds
 0 <= x(0,157,0) <= 1
 0 <= x(0,158,1) <= 1
 0 <= x(4,157,0) <= 1
 0 <= x(4,158,1) <= 1
 0 <= x(16,157,0) <= 1
 0 <= x(16,158,1) <= 1
 0 <= x(31,0,0) <= 1
 0 <= x(31,0,1) <= 1
 0 <= x(31,4,0) <= 1
 0 <= x(31,4,1) <= 1
 0 <= x(31,16,0) <= 1
 0 <= x(31,16,1) <= 1
 0 <= x(31,62,0) <= 1
 0 <= x(31,62,1) <= 1
 0 <= x(31,66,0) <= 1
 0 <= x(31,66,1) <= 1
 0 <= x(31,90,0) <= 1
 0 <= x(31,90,1) <= 1
 0 <= x(31,93,0) <= 1
 0 <= x(31,93,1) <= 1
 0 <= x(31,96,0) <= 1
 0 <= x(31,96,1) <= 1
 0 <= x(31,97,0) <= 1
 0 <= x(31,97,1) <= 1
 0 <= x(31,124,0) <= 1
 0 <= x(31,124,1) <= 1
 0 <= x(31,128,0) <= 1
 0 <= x(31,128,1) <= 1
 0 <= x(31,139,0) <= 1
 0 <= x(31,139,1) <= 1
 0 <= x(31,157,0) <= 1
 0 <= x(31,158,1) <= 1
 0 <= x(34,0,0) <= 1
 0 <= x(34,0,1) <= 1
 0 <= x(34,16,0) <= 1
 0 <= x(34,16,1) <= 1
 0 <= x(34,62,0) <= 1
 0 <= x(34,62,1) <= 1
 0 <= x(34,90,0) <= 1
 0 <= x(34,90,1) <= 1
 0 <= x(34,93,0) <= 1
 0 <= x(34,93,1) <= 1
 0 <= x(34,124,0) <= 1
 0 <= x(34,124,1) <= 1
 0 <= x(34,139,0) <= 1
 0 <= x(34,139,1) <= 1
 0 <= x(34,157,0) <= 1
 0 <= x(34,158,1) <= 1
 0 <= x(46,0,0) <= 1
 0 <= x(46,0,1) <= 1
 0 <= x(46,4,0) <= 1
 0 <= x(46,4,1) <= 1
 0 <= x(46,62,0) <= 1
 0 <= x(46,62,1) <= 1
 0 <= x(46,66,0) <= 1
 0 <= x(46,66,1) <= 1
 0 <= x(46,90,0) <= 1
 0 <= x(46,90,1) <= 1
 0 <= x(46,93,0) <= 1
 0 <= x(46,93,1) <= 1
 0 <= x(46,96,0) <= 1
 0 <= x(46,96,1) <= 1
 0 <= x(46,97,0) <= 1
 0 <= x(46,97,1) <= 1
 0 <= x(46,124,0) <= 1
 0 <= x(46,124,1) <= 1
 0 <= x(46,128,0) <= 1
 0 <= x(46,128,1) <= 1
 0 <= x(46,157,0) <= 1
 0 <= x(46,158,1) <= 1
 0 <= x(62,0,0) <= 1
 0 <= x(62,0,1) <= 1
 0 <= x(62,4,0) <= 1
 0 <= x(62,4,1) <= 1
 0 <= x(62,16,0) <= 1
 0 <= x(62,16,1) <= 1
 0 <= x(62,124,0) <= 1
 0 <= x(62,124,1) <= 1
 0 <= x(62,128,0) <= 1
 0 <= x(62,128,1) <= 1
 0 <= x(62,139,0) <= 1
 0 <= x(62,139,1) <= 1
 0 <= x(62,157,0) <= 1
 0 <= x(62,158,1) <= 1
 0 <= x(66,0,0) <= 1
 0 <= x(66,0,1) <= 1
 0 <= x(66,16,0) <= 1
 0 <= x(66,16,1) <= 1
 0 <= x(66,124,0) <= 1
 0 <= x(66,124,1) <= 1
 0 <= x(66,139,0) <= 1
 0 <= x(66,139,1) <= 1
 0 <= x(66,157,0) <= 1
 0 <= x(66,158,1) <= 1
 0 <= x(90,0,0) <= 1
 0 <= x(90,0,1) <= 1
 0 <= x(90,4,0) <= 1
 0 <= x(90,4,1) <= 1
 0 <= x(90,16,0) <= 1
 0 <= x(90,16,1) <= 1
 0 <= x(90,124,0) <= 1
 0 <= x(90,124,1) <= 1
 0 <= x(90,128,0) <= 1
 0 <= x(90,128,1) <= 1
 0 <= x(90,139,0) <= 1
 0 <= x(90,139,1) <= 1
 0 <= x(90,157,0) <= 1
 0 <= x(90,158,1) <= 1
 0 <= x(93,0,0) <= 1
 0 <= x(93,0,1) <= 1
 0 <= x(93,4,0) <= 1
 0 <= x(93,4,1) <= 1
 0 <= x(93,16,0) <= 1
 0 <= x(93,16,1) <= 1
 0 <= x(93,62,0) <= 1
 0 <= x(93,62,1) <= 1
 0 <= x(93,66,0) <= 1
 0 <= x(93,66,1) <= 1
 0 <= x(93,90,0) <= 1
 0 <= x(93,90,1) <= 1
 0 <= x(93,124,0) <= 1
 0 <= x(93,124,1) <= 1
 0 <= x(93,128,0) <= 1
 0 <= x(93,128,1) <= 1
 0 <= x(93,139,0) <= 1
 0 <= x(93,139,1) <= 1
 0 <= x(93,157,0) <= 1
 0 <= x(93,158,1) <= 1
 0 <= x(96,0,0) <= 1
 0 <= x(96,0,1) <= 1
 0 <= x(96,16,0) <= 1
 0 <= x(96,16,1) <= 1
 0 <= x(96,62,0) <= 1
 0 <= x(96,62,1) <= 1
 0 <= x(96,124,0) <= 1
 0 <= x(96,124,1) <= 1
 0 <= x(96,139,0) <= 1
 0 <= x(96,139,1) <= 1
 0 <= x(96,157,0) <= 1
 0 <= x(96,158,1) <= 1
 0 <= x(97,0,0) <= 1
 0 <= x(97,0,1) <= 1
 0 <= x(97,16,0) <= 1
 0 <= x(97,16,1) <= 1
 0 <= x(97,62,0) <= 1
 0 <= x(97,62,1) <= 1
 0 <= x(97,90,0) <= 1
 0 <= x(97,90,1) <= 1
 0 <= x(97,124,0) <= 1
 0 <= x(97,124,1) <= 1
 0 <= x(97,139,0) <= 1
 0 <= x(97,139,1) <= 1
 0 <= x(97,157,0) <= 1
 0 <= x(97,158,1) <= 1
 0 <= x(124,157,0) <= 1
 0 <= x(124,158,1) <= 1
 0 <= x(128,157,0) <= 1
 0 <= x(128,158,1) <= 1
 0 <= x(139,157,0) <= 1
 0 <= x(139,158,1) <= 1
 0 <= x(155,0,0) <= 1
 0 <= x(155,4,0) <= 1
 0 <= x(155,16,0) <= 1
 0 <= x(155,31,0) <= 1
 0 <= x(155,34,0) <= 1
 0 <= x(155,46,0) <= 1
 0 <= x(155,62,0) <= 1
 0 <= x(155,66,0) <= 1
 0 <= x(155,90,0) <= 1
 0 <= x(155,93,0) <= 1
 0 <= x(155,96,0) <= 1
 0 <= x(155,97,0) <= 1
 0 <= x(155,124,0) <= 1
 0 <= x(155,128,0) <= 1
 0 <= x(155,139,0) <= 1
 0 <= x(155,157,0) <= 1
 0 <= x(156,0,1) <= 1
 0 <= x(156,4,1) <= 1
 0 <= x(156,16,1) <= 1
 0 <= x(156,31,1) <= 1
 0 <= x(156,34,1) <= 1
 0 <= x(156,46,1) <= 1
 0 <= x(156,62,1) <= 1
 0 <= x(156,66,1) <= 1
 0 <= x(156,90,1) <= 1
 0 <= x(156,93,1) <= 1
 0 <= x(156,96,1) <= 1
 0 <= x(156,97,1) <= 1
 0 <= x(156,124,1) <= 1
 0 <= x(156,128,1) <= 1
 0 <= x(156,139,1) <= 1
 0 <= x(156,158,1) <= 1
 9 <= u(0) <= 19
 9 <= u(1) <= 19
 9 <= uf(0) <= 19
 9 <= uf(1) <= 19
Binaries
 x(0,157,0)  x(0,158,1)  x(4,157,0)  x(4,158,1)  x(16,157,0)  x(16,158,1) 
 x(31,0,0)  x(31,0,1)  x(31,4,0)  x(31,4,1)  x(31,16,0)  x(31,16,1) 
 x(31,62,0)  x(31,62,1)  x(31,66,0)  x(31,66,1)  x(31,90,0)  x(31,90,1) 
 x(31,93,0)  x(31,93,1)  x(31,96,0)  x(31,96,1)  x(31,97,0)  x(31,97,1) 
 x(31,124,0)  x(31,124,1)  x(31,128,0)  x(31,128,1)  x(31,139,0)  x(31,139,1) 
 x(31,157,0)  x(31,158,1)  x(34,0,0)  x(34,0,1)  x(34,16,0)  x(34,16,1) 
 x(34,62,0)  x(34,62,1)  x(34,90,0)  x(34,90,1)  x(34,93,0)  x(34,93,1) 
 x(34,124,0)  x(34,124,1)  x(34,139,0)  x(34,139,1)  x(34,157,0)  x(34,158,1) 
 x(46,0,0)  x(46,0,1)  x(46,4,0)  x(46,4,1)  x(46,62,0)  x(46,62,1) 
 x(46,66,0)  x(46,66,1)  x(46,90,0)  x(46,90,1)  x(46,93,0)  x(46,93,1) 
 x(46,96,0)  x(46,96,1)  x(46,97,0)  x(46,97,1)  x(46,124,0)  x(46,124,1) 
 x(46,128,0)  x(46,128,1)  x(46,157,0)  x(46,158,1)  x(62,0,0)  x(62,0,1) 
 x(62,4,0)  x(62,4,1)  x(62,16,0)  x(62,16,1)  x(62,124,0)  x(62,124,1) 
 x(62,128,0)  x(62,128,1)  x(62,139,0)  x(62,139,1)  x(62,157,0)  x(62,158,1) 
 x(66,0,0)  x(66,0,1)  x(66,16,0)  x(66,16,1)  x(66,124,0)  x(66,124,1) 
 x(66,139,0)  x(66,139,1)  x(66,157,0)  x(66,158,1)  x(90,0,0)  x(90,0,1) 
 x(90,4,0)  x(90,4,1)  x(90,16,0)  x(90,16,1)  x(90,124,0)  x(90,124,1) 
 x(90,128,0)  x(90,128,1)  x(90,139,0)  x(90,139,1)  x(90,157,0)  x(90,158,1) 
 x(93,0,0)  x(93,0,1)  x(93,4,0)  x(93,4,1)  x(93,16,0)  x(93,16,1) 
 x(93,62,0)  x(93,62,1)  x(93,66,0)  x(93,66,1)  x(93,90,0)  x(93,90,1) 
 x(93,124,0)  x(93,124,1)  x(93,128,0)  x(93,128,1)  x(93,139,0)  x(93,139,1) 
 x(93,157,0)  x(93,158,1)  x(96,0,0)  x(96,0,1)  x(96,16,0)  x(96,16,1) 
 x(96,62,0)  x(96,62,1)  x(96,124,0)  x(96,124,1)  x(96,139,0)  x(96,139,1) 
 x(96,157,0)  x(96,158,1)  x(97,0,0)  x(97,0,1)  x(97,16,0)  x(97,16,1) 
 x(97,62,0)  x(97,62,1)  x(97,90,0)  x(97,90,1)  x(97,124,0)  x(97,124,1) 
 x(97,139,0)  x(97,139,1)  x(97,157,0)  x(97,158,1)  x(124,157,0) 
 x(124,158,1)  x(128,157,0)  x(128,158,1)  x(139,157,0)  x(139,158,1) 
 x(155,0,0)  x(155,4,0)  x(155,16,0)  x(155,31,0)  x(155,34,0)  x(155,46,0) 
 x(155,62,0)  x(155,66,0)  x(155,90,0)  x(155,93,0)  x(155,96,0)  x(155,97,0) 
 x(155,124,0)  x(155,128,0)  x(155,139,0)  x(155,157,0)  x(156,0,1) 
 x(156,4,1)  x(156,16,1)  x(156,31,1)  x(156,34,1)  x(156,46,1)  x(156,62,1) 
 x(156,66,1)  x(156,90,1)  x(156,93,1)  x(156,96,1)  x(156,97,1)  x(156,124,1) 
 x(156,128,1)  x(156,139,1)  x(156,158,1) 
End
